NAME: instances/10_4.tsp
TYPE: TSP
COMMENT: 10-Staedte in Burma (Zaw Win)
DIMENSION: 10
EDGE_WEIGHT_TYPE: GEO
EDGE_WEIGHT_FORMAT: FUNCTION
DISPLAY_DATA_TYPE: COORD_DISPLAY
NODE_COORD_SECTION
1 -25.14 8.37
2 -0.62 -9.25
3 -2.64 -25.51
4 29.84 -25.95
5 28.23 4.59
6 12.06 -14.96
7 -5.32 -17.91
8 -12.94 6.62
9 3.12 -27.97
10 -15.21 19.18
EOF
